GLPSOL--GLPK LP/MIP Solver 5.0
Parameter(s) specified in the command line:
 --lp ../20_324.lp --log 20_324.log -o 20_324.txt
Reading problem data from '../20_324.lp'...
6561 rows, 13000 columns, 45420 non-zeros
6480 integer variables, all of which are binary
19587 lines were read
GLPK Integer Optimizer 5.0
6561 rows, 13000 columns, 45420 non-zeros
6480 integer variables, all of which are binary
Preprocessing...
6440 constraint coefficient(s) were reduced
6561 rows, 12980 columns, 45400 non-zeros
6480 integer variables, all of which are binary
Scaling...
 A: min|aij| =  1.524e-04  max|aij| =  4.000e+00  ratio =  2.624e+04
GM: min|aij| =  7.857e-02  max|aij| =  1.273e+01  ratio =  1.620e+02
EQ: min|aij| =  6.173e-03  max|aij| =  1.000e+00  ratio =  1.620e+02
2N: min|aij| =  4.877e-03  max|aij| =  1.763e+00  ratio =  3.615e+02
Constructing initial basis...
Size of triangular part is 6561
Solving LP relaxation...
GLPK Simplex Optimizer 5.0
6561 rows, 12980 columns, 45400 non-zeros
      0: obj =   4.000000000e+01 inf =   9.950e+01 (41)
Perturbing LP to avoid stalling [199]...
    419: obj =   1.304612922e-01 inf =   0.000e+00 (0)
Removing LP perturbation [1394]...
*  1394: obj =  -4.471471471e+00 inf =   2.046e-12 (0) 1
OPTIMAL LP SOLUTION FOUND
Integer optimization begins...
Long-step dual simplex will be used
+  1394: mip =     not found yet >=              -inf        (1; 0)
+  1627: mip =     not found yet >=  -4.471471471e+00        (232; 0)
+  1641: >>>>>  -4.471471471e+00 >=  -4.471471471e+00   0.0% (244; 0)
+  1641: mip =  -4.471471471e+00 >=     tree is empty   0.0% (0; 487)
INTEGER OPTIMAL SOLUTION FOUND
Time used:   5.7 secs
Memory used: 19.1 Mb (20048534 bytes)
Writing MIP solution to '20_324.txt'...
